mixintcount/benchmarks/random_v2l/4_4_25.in
16 6
#	x1	x2	x3	x4;		0 = Real; 1 = Integer
	1	1	1	1
1	1	10	1	-6	25
1	-2	10	1	-2	-17
1	4	1	-6	0	1
1	2	9	-4	10	-6
1	10	7	3	0	-6
1	3	-9	-1	-4	-18
1	10	5	-10	-2	-10
1	8	7	5	-2	1
1	1	0	0	0	25
1	-1	0	0	0	25
1	0	1	0	0	25
1	0	-1	0	0	25
1	0	0	1	0	25
1	0	0	-1	0	25
1	0	0	0	1	25
1	0	0	0	-1	25
